NAME : morphed22-2-13
COMMENT : Generated using the function morphInstances from the R-package netgen (Bossek,2015) - Number of clusters: 2 Alpha: 0.5
TYPE : TSP
DIMENSION : 22
EDGE_WEIGHT_TYPE : EUC_2D
NODE_COORD_SECTION
1 67.7312582454 70.8123772502
2 17.1341221024 45.837251099
3 20.6297066171 13.6278465475
4 8.5365494058 52.6786848469
5 51.3367278607 15.5924745822
6 1.9227624675 36.9011532608
7 32.9271885421 32.8655972953
8 70.6954789781 68.5607333687
9 73.6789441046 59.562851579
10 4.499907846 36.8311207192
11 62.9424277452 94.7271271029
12 81.3084748018 84.1054092575
13 79.717403526 65.5472091502
14 35.407894623 15.6840410081
15 61.8424966164 48.0349302473
16 21.4641389782 7.818826495
17 42.8444952198 74.598998902
18 38.1407204384 13.7855063009
19 80.5982477486 67.2082158763
20 43.1826591929 26.564398459
21 35.7102481609 89.504482627
22 55.8713671375 63.4023350897
EOF
